(set-logic ALL)
(declare-const GEN1 Int)
(declare-const GEN2 Int)
(declare-const GEN3 Int)
(declare-const GEN4 Int)
(declare-const GEN5 Int)
(declare-const GEN6 Int)
(declare-const GEN7 Int)
(declare-const GEN8 Int)
(declare-const GEN9 Int)
(declare-const BAV10 Bool)
(declare-const BAV11 Bool)
(declare-const BAV12 Bool)
(declare-const BAV13 Bool)
(declare-const BAV14 Bool)
(declare-const BAV15 Bool)
(declare-const BAV16 Bool)
(declare-const BAV17 Bool)
(declare-const BAV18 Bool)
(declare-const BAV19 Bool)
(declare-const BAV20 Bool)
(declare-const BAV21 Bool)
(declare-const BAV22 Bool)
(declare-const BAV23 Bool)
(declare-const BAV24 Bool)
(declare-const BAV25 Bool)
(declare-const BAV26 Bool)
(declare-const BAV27 Bool)
(declare-const BAV28 Bool)
(declare-const BAV29 Bool)
(declare-const BAV30 Bool)
(declare-const BAV31 Bool)
(declare-const BAV32 Bool)
(declare-fun i1 () Real)
(declare-fun i2 () Real)
(declare-fun n () Int)
(declare-fun x () Int)
(declare-fun y () Int)
(declare-fun i11 () Real)
(declare-fun i21 () Real)
(assert (>= n GEN1))
(assert (and (<= GEN2 x) (<= x n)))
(assert (and (<= GEN3 y) (<= y n)))
(assert (or (= (/ (* (- GEN4) x) n) i1) (= i1 (/ x n))))
(assert (or (= (/ (* (- GEN5) y) n) i2) (= i2 (/ y n))))
(assert (and (= i1 i11) (= i2 i21)))
(assert (not (and (or (= (- GEN6) i11) (= i11 GEN7)) (or (= (- GEN8) i21) (= i21 GEN9)))))
(assert (= BAV10 (>= n GEN1)))
(assert (= BAV11 (and (<= GEN2 x) (<= x n))))
(assert (= BAV12 (<= GEN2 x)))
(assert (= BAV13 (<= x n)))
(assert (= BAV14 (and (<= GEN3 y) (<= y n))))
(assert (= BAV15 (<= GEN3 y)))
(assert (= BAV16 (<= y n)))
(assert (= BAV17 (or (= (/ (* (- GEN4) x) n) i1) (= i1 (/ x n)))))
(assert (= BAV18 (= (/ (* (- GEN4) x) n) i1)))
(assert (= BAV19 (= i1 (/ x n))))
(assert (= BAV20 (or (= (/ (* (- GEN5) y) n) i2) (= i2 (/ y n)))))
(assert (= BAV21 (= (/ (* (- GEN5) y) n) i2)))
(assert (= BAV22 (= i2 (/ y n))))
(assert (= BAV23 (and (= i1 i11) (= i2 i21))))
(assert (= BAV24 (= i1 i11)))
(assert (= BAV25 (= i2 i21)))
(assert (= BAV26 (and (or (= (- GEN6) i11) (= i11 GEN7)) (or (= (- GEN8) i21) (= i21 GEN9)))))
(assert (= BAV27 (or (= (- GEN6) i11) (= i11 GEN7))))
(assert (= BAV28 (= (- GEN6) i11)))
(assert (= BAV29 (= i11 GEN7)))
(assert (= BAV30 (or (= (- GEN8) i21) (= i21 GEN9))))
(assert (= BAV31 (= (- GEN8) i21)))
(assert (= BAV32 (= i21 GEN9)))
(check-sat)